(set-logic QF_SLAH)

(declare-datatypes ((data_t 0)) (((c_data_t (sz Int)))))

(declare-heap (Int data_t))

(define-fun hck ((?x Int) (?y Int) (?v Int)) Bool
	(and
		(>= (- ?y ?x) 2) (<= (- ?y ?x) ?v)
		(sep (pto ?x (c_data_t (- ?y ?x))) (blk (+ ?x 1) ?y))
))

(define-fun-rec hls ((?x Int) (?y Int) (?v Int)) Bool
	(or
		(and (= ?x ?y) (_ emp Int data_t))
		(exists ((?w Int)) (sep (hck ?x ?w ?v) (hls ?w ?y ?v)))
))

(declare-const x0 Int)
(declare-const x1 Int)
(declare-const v0 Int)
(declare-const x2 Int)
(declare-const x3 Int)
(declare-const v2 Int)
(declare-const x4 Int)
(declare-const x5 Int)
(declare-const v4 Int)
(declare-const x6 Int)
(declare-const x7 Int)
(declare-const x8 Int)
(declare-const x9 Int)
(declare-const x10 Int)
(declare-const x11 Int)
(declare-const x12 Int)
(declare-const x13 Int)
(declare-const x14 Int)
(declare-const x15 Int)
(declare-const v14 Int)
(declare-const x16 Int)
(declare-const x17 Int)
(declare-const x18 Int)
(declare-const x19 Int)
(declare-const x20 Int)
(declare-const x21 Int)
(declare-const v20 Int)
(declare-const x22 Int)
(declare-const x23 Int)
(declare-const v22 Int)
(declare-const x24 Int)
(declare-const x25 Int)
(declare-const x26 Int)
(declare-const x27 Int)
(declare-const v26 Int)
(declare-const x28 Int)
(declare-const x29 Int)
(declare-const v28 Int)
(declare-const x30 Int)
(declare-const x31 Int)
(declare-const v30 Int)
(declare-const x32 Int)
(declare-const x33 Int)
(declare-const x34 Int)
(declare-const x35 Int)
(declare-const x36 Int)
(declare-const x37 Int)
(declare-const v36 Int)
(declare-const x38 Int)
(declare-const x39 Int)
(declare-const v38 Int)
(declare-const x40 Int)
(declare-const x41 Int)
(declare-const v40 Int)
(declare-const x42 Int)
(declare-const x43 Int)
(declare-const v42 Int)
(declare-const x44 Int)
(declare-const x45 Int)
(declare-const x46 Int)
(declare-const x47 Int)
(declare-const x48 Int)
(declare-const x49 Int)
(declare-const x50 Int)
(declare-const x51 Int)
(declare-const v50 Int)
(declare-const x52 Int)
(declare-const x53 Int)
(declare-const v52 Int)
(declare-const x54 Int)
(declare-const x55 Int)
(declare-const v54 Int)
(declare-const x56 Int)
(declare-const x57 Int)
(declare-const v56 Int)
(declare-const x58 Int)
(declare-const x59 Int)
(declare-const x60 Int)
(declare-const x61 Int)
(declare-const v60 Int)
(declare-const x62 Int)
(declare-const x63 Int)
(declare-const x64 Int)
(declare-const x65 Int)
(declare-const v64 Int)
(declare-const x66 Int)
(declare-const x67 Int)
(declare-const x68 Int)
(declare-const x69 Int)
(declare-const x70 Int)
(declare-const x71 Int)
(declare-const x72 Int)
(declare-const x73 Int)
(declare-const x74 Int)
(declare-const x75 Int)
(declare-const v74 Int)
(declare-const x76 Int)
(declare-const x77 Int)
(declare-const x78 Int)
(declare-const x79 Int)
(declare-const x80 Int)
(declare-const x81 Int)
(declare-const x82 Int)
(declare-const x83 Int)
(declare-const v82 Int)
(declare-const x84 Int)
(declare-const x85 Int)
(declare-const x86 Int)
(declare-const x87 Int)
(declare-const x88 Int)
(declare-const x89 Int)
(declare-const v88 Int)
(declare-const x90 Int)
(declare-const x91 Int)
(declare-const x92 Int)
(declare-const x93 Int)
(declare-const v92 Int)
(declare-const x94 Int)
(declare-const x95 Int)
(declare-const x96 Int)
(declare-const x97 Int)
(declare-const v96 Int)
(declare-const x98 Int)
(declare-const x99 Int)

(assert(and
(distinct x73 x48) (= x78 x45) (< x67 x44) (= x52 x20) (distinct x28 x81) (< x93 x49) (distinct x19 x82) (= x73 x84) (= x85 x82) (= x38 x15) (< x23 x11) (distinct x61 x71) (< x88 x55) (distinct x47 x78) (distinct x32 x58) (distinct x75 x52) (= x14 x67) (distinct x23 x53) (= x31 x43) 
(sep
(hls x0 x1 v0)
(hls x2 x3 v2)
(hls x4 x5 v4)
(blk x6 x7)
(pto x8 (c_data_t x9))
(blk x10 x11)
(blk x12 x13)
(hls x14 x15 v14)
(blk x16 x17)
(blk x18 x19)
(hls x20 x21 v20)
(hls x22 x23 v22)
(pto x24 (c_data_t x25))
(hls x26 x27 v26)
(hls x28 x29 v28)
(hls x30 x31 v30)
(blk x32 x33)
(pto x34 (c_data_t x35))
(hls x36 x37 v36)
(hls x38 x39 v38)
(hls x40 x41 v40)
(hls x42 x43 v42)
(pto x44 (c_data_t x45))
(blk x46 x47)
(pto x48 (c_data_t x49))
(hls x50 x51 v50)
(hls x52 x53 v52)
(hls x54 x55 v54)
(hls x56 x57 v56)
(blk x58 x59)
(hls x60 x61 v60)
(pto x62 (c_data_t x63))
(hls x64 x65 v64)
(blk x66 x67)
(pto x68 (c_data_t x69))
(blk x70 x71)
(pto x72 (c_data_t x73))
(hls x74 x75 v74)
(pto x76 (c_data_t x77))
(blk x78 x79)
(blk x80 x81)
(hls x82 x83 v82)
(pto x84 (c_data_t x85))
(pto x86 (c_data_t x87))
(hls x88 x89 v88)
(blk x90 x91)
(hls x92 x93 v92)
(pto x94 (c_data_t x95))
(hls x96 x97 v96)
(blk x98 x99)
)))

(check-sat)